80 1403
3 7 11 14 18 20 21 22 23 24 25 26 27 28 29 30 31 32 33 35 36 38 39 44 45 46 48 49 50 51 52 55 61 62 65 67 68 69 76 77 79
6 10 11 15 16 18 19 22 24 27 30 34 35 37 38 39 44 45 47 49 59 60 63 64 68 69 70 71 72 73 76 78 79
3 4 8 10 13 15 16 18 26 28 30 33 37 38 43 46 48 50 54 56 61 63 65 67 68 70 73 74 76 79
0 2 4 6 20 25 26 27 30 32 33 39 40 42 43 45 47 48 50 51 53 54 56 59 64 67 68 69 70 71 72 73 74 75 76 77 79
2 3 6 7 8 9 11 17 18 21 22 23 24 26 27 29 31 32 35 36 37 40 43 44 46 47 48 52 53 55 56 57 59 61 62 63 74
10 15 16 24 26 28 31 32 33 34 36 42 43 44 45 51 52 53 54 55 57 63 64 66 67 72 74 77
1 3 4 11 15 18 19 20 22 31 32 33 34 35 36 41 47 48 52 53 55 57 59 60 63 65 66 67 69 72 73
0 4 8 10 12 14 15 16 20 23 25 27 28 30 32 34 36 37 41 45 46 51 52 53 54 55 56 59 61 62 65 70 71 72 73 77
2 4 7 14 16 17 18 20 23 24 29 33 34 35 37 38 39 40 45 46 48 52 53 54 57 59 60 63 68 69 70 74 76 77 78 79
4 10 12 13 17 21 24 27 28 29 30 33 35 39 40 43 44 48 50 54 57 59 61 63 64 72 73 75 78
1 2 5 7 9 12 14 16 17 20 21 25 26 27 28 30 33 35 39 43 44 45 46 48 50 53 54 58 59 62 64 67 69 70 73 78 79
0 1 4 6 13 16 19 21 22 23 25 27 30 33 34 35 38 40 42 46 47 48 49 50 53 54 56 58 61 62 69 71 73 76 77 78
7 9 10 15 17 24 25 28 29 32 33 35 36 37 38 41 42 45 48 50 51 52 54 55 63 66 69 76 78 79
2 9 11 15 16 17 18 20 22 24 25 27 30 31 33 34 38 39 40 42 43 46 47 48 50 51 52 55 57 59 60 61 63 66 73 74 75 76 77
0 7 8 10 15 16 17 20 21 22 23 25 26 27 28 29 31 33 34 38 39 41 42 44 46 47 48 50 53 62 64 65 66 68 69 71 73 74 78
1 2 5 6 7 12 13 14 16 17 19 20 25 31 33 34 37 41 46 47 53 54 55 57 60 62 63 64 65 67 71 75
1 2 5 7 8 10 11 13 14 15 19 24 25 26 30 31 34 36 37 40 45 46 49 53 55 56 57 58 64 65 66 71 72 74 75 78
4 8 9 10 12 13 14 15 19 21 22 28 31 32 33 34 37 38 42 43 45 47 52 55 57 59 68 70 71 78
0 1 2 4 6 8 13 20 21 22 28 32 36 38 40 45 46 49 50 52 54 57 61 62 65 67 68 70 71 73 75 77 78 79
1 6 11 15 16 17 20 21 25 29 30 31 34 38 40 42 43 44 45 46 48 52 54 56 58 59 60 65 66 69 71 73 74 75 78 79
0 3 6 7 8 10 13 14 15 18 19 25 31 34 35 36 37 41 42 45 51 57 63 67 68 70 71 73 75 76 79
0 4 9 10 11 14 17 18 19 24 26 28 30 31 33 35 37 38 39 41 42 43 47 48 50 51 52 53 55 56 57 58 60 62 68 69 70 76 77 79
0 1 4 6 11 13 14 17 18 25 26 29 31 37 38 45 47 48 49 50 51 53 55 56 58 62 64 66 68 69 70 72 74 78 79
0 4 7 8 11 14 26 28 29 35 39 40 43 45 50 51 52 53 55 56 58 60 64 67 68 70 71 73 77
0 1 4 5 8 9 12 13 16 21 25 26 27 32 33 40 41 42 43 46 47 48 49 55 56 57 61 66 69 70 73 74 77
0 3 7 10 11 12 13 14 15 16 19 20 22 24 28 29 30 31 36 37 38 41 42 45 49 52 53 54 55 57 58 60 62 66 67 70 71 72 77
0 2 3 4 5 10 14 16 21 22 23 24 29 30 31 37 38 39 41 42 43 44 47 49 51 52 53 54 56 58 63 64 69 71 72 73 75 77 78 79
0 1 3 4 7 9 10 11 13 14 24 31 32 34 37 39 43 44 45 51 58 59 63 65 66 69 70 71 75 76
0 2 5 7 9 10 12 14 17 18 21 23 25 30 31 33 35 36 37 39 42 43 45 46 51 54 55 56 61 62 65 69 70 72 74 75 76 78 79
0 4 8 9 12 14 19 22 23 25 26 32 35 36 49 50 52 56 57 59 60 67 68 70 73 75 76 77 78
0 1 2 3 7 9 10 11 13 16 19 21 25 26 28 32 33 35 42 44 45 48 50 51 54 55 57 58 60 61 64 65 68 69 72 73 78
0 4 5 6 13 14 15 16 17 19 20 21 22 25 26 27 28 32 35 40 41 43 45 48 51 53 56 57 60 61 66 69 71 73 75 78
0 3 4 5 6 7 12 17 18 24 27 29 30 31 34 35 36 40 41 44 45 46 48 51 54 55 56 57 58 59 62 63 68 69 70 71 72 73 74 76
0 2 3 5 6 8 9 10 11 12 13 14 15 17 21 24 28 30 36 39 50 54 56 58 59 60 63 67 71 72 73 74 78 79
1 5 6 7 8 11 13 14 15 16 17 19 20 27 32 37 39 40 42 45 46 47 52 54 58 59 60 63 67 68 73 76 78
0 1 4 6 8 9 10 11 12 20 21 23 28 29 30 31 32 40 41 43 45 46 47 48 49 50 53 56 57 60 62 66 67 70 71 74 75 78
0 4 5 6 7 12 16 18 20 25 28 29 32 33 38 40 43 44 45 47 49 51 52 55 56 57 59 64 65 66 67 68 70 72 73 74 77
1 2 4 7 8 12 15 16 17 20 21 22 25 26 27 28 34 40 41 42 43 44 45 47 49 50 52 58 60 62 65 66 67 69 70 71 72 75 76 77 79
0 1 2 8 11 12 13 14 17 18 19 21 22 25 26 36 41 42 46 51 52 53 54 57 60 64 66 68 70 73 74 77 78
0 1 3 8 9 10 13 14 21 23 26 27 28 33 34 41 44 47 48 50 52 53 54 56 61 62 63 64 65 68 69 71 75
3 4 8 9 11 13 16 18 19 23 24 31 32 34 35 36 37 42 46 48 49 57 58 62 63 66 67 68 71 72 73 77 78
6 7 12 14 15 20 21 24 25 26 31 32 35 37 38 39 42 43 44 45 46 47 51 52 53 57 58 60 70 71 73 75 79
3 5 11 12 13 14 17 19 20 21 24 25 26 28 30 34 37 38 40 41 44 45 47 48 49 52 60 64 67 70 74 76 77 79
2 3 4 5 9 10 13 17 19 21 23 24 26 27 28 31 35 36 37 41 46 47 51 52 55 57 58 62 63 65 67 68 70 74 77 78 79
0 1 4 5 9 10 14 19 26 27 30 32 36 37 39 41 42 46 48 49 50 52 55 56 57 58 59 62 64 68 71 72 74 77 78 79
0 1 3 5 7 8 10 12 16 17 18 19 20 22 23 25 27 28 30 31 32 34 35 36 37 41 42 46 48 55 56 57 60 62 63 64 67 68 69 72 73 74 76 78
0 2 4 7 8 10 11 13 14 15 16 18 19 24 28 32 34 35 38 40 41 43 44 45 47 50 51 56 57 58 60 62 63 64 70 71 72 73 74 76 78
1 3 4 6 11 13 14 15 17 21 22 24 26 34 35 36 37 39 41 42 43 46 49 51 53 54 61 65 66 67 68 69 71 72 74 76 78
0 2 3 4 6 8 9 10 11 12 13 14 19 21 22 24 30 31 32 35 39 40 42 44 45 49 51 53 54 56 59 62 63 64 68 73 75 77 78
0 1 11 16 18 22 24 25 26 29 35 36 37 40 42 44 47 48 52 53 57 62 64 65 66 67 68 69 70 71 72 79
0 2 3 9 10 11 12 13 14 18 21 22 23 29 30 33 35 37 39 44 46 52 57 58 61 62 65 66 70 72 73 74 75 77 78
0 3 5 7 12 13 20 21 22 23 26 27 28 30 31 32 36 38 41 43 46 47 48 53 54 55 56 60 64 65 66 67 68 70 73 75 77 78 79
0 4 5 6 7 8 12 13 17 18 19 21 23 25 26 29 34 36 37 38 39 41 42 43 44 49 50 53 55 58 60 66 67 69 70 71 74 78
3 4 5 6 7 8 10 11 14 15 16 21 22 23 25 26 31 35 38 39 41 47 48 49 51 52 54 59 61 63 73 78
2 3 5 7 8 9 10 11 12 15 18 19 25 26 28 30 32 33 34 38 39 47 48 51 53 57 59 61 62 64 66 68 70 72 73 78 79
0 4 5 6 7 12 13 15 16 17 21 22 23 24 25 28 30 32 36 43 44 45 51 52 56 57 58 59 60 62 63 64 66 72 73 77 79
2 3 4 7 11 16 19 21 22 23 24 26 28 29 31 32 33 35 36 39 44 45 46 48 51 55 58 60 64 71 74 75 77
4 5 6 8 9 13 15 16 17 18 20 21 24 25 29 30 31 32 35 36 38 40 41 43 44 45 46 49 50 54 55 59 63 68 72 75 76 77 79
10 11 16 19 21 22 23 25 26 27 30 32 33 34 37 40 41 43 44 46 50 52 55 56 60 62 67 68 69 70 71 74 75 76 77 78 79
1 3 4 6 7 8 9 10 13 17 19 27 29 32 33 34 36 44 48 53 54 55 57 65 66 68 75 79
1 6 8 13 15 19 21 23 25 29 30 31 33 34 35 37 38 41 42 45 46 51 52 55 56 58 61 62 63 64 66
0 2 4 7 9 11 13 18 24 28 30 31 39 47 50 53 54 60 69 70 73 78 79
0 4 7 10 11 14 15 18 21 22 25 28 32 35 37 39 40 43 44 45 46 48 49 50 54 55 58 60 65 66 69 72 73 75 77 78
1 2 4 5 6 8 9 12 13 15 20 26 27 32 33 34 39 40 43 45 46 48 53 55 57 60 64 68 69 71
1 3 5 9 10 14 15 16 22 23 26 30 36 38 39 42 44 45 46 48 49 51 54 55 56 60 63 69 70 73 74 76 77 78 79
0 2 6 7 14 15 16 18 19 27 28 30 36 37 39 43 47 49 50 51 59 62 66 67 68 69 70 72 73 79
5 6 12 13 14 16 19 22 24 25 27 31 35 36 37 38 40 47 49 50 51 52 54 55 59 60 62 65 73 74 76 77 79
0 2 3 5 6 10 15 18 20 23 25 29 33 34 35 36 37 40 42 43 45 47 49 51 52 58 65 68 70 71 72 73 75
0 1 2 3 8 14 17 18 20 21 22 23 29 30 32 34 36 38 39 40 43 44 45 47 48 49 51 54 57 58 59 63 65 67 69 71 73 77 79
0 1 3 6 8 10 11 12 14 19 21 22 24 26 27 28 30 31 32 37 39 45 47 49 52 58 61 62 63 64 65 68 71 76 77
1 2 3 7 8 10 17 18 20 21 22 23 24 25 27 28 29 32 35 36 37 38 41 42 43 46 49 50 51 52 54 58 61 64 65 67 72 73 75 76 77
1 3 7 11 14 15 16 17 18 19 20 23 25 26 27 31 32 33 35 37 39 40 41 44 46 47 49 52 56 58 63 67 68 69 72 76 77 78
1 3 5 6 7 9 16 22 25 26 28 30 32 33 36 37 40 44 45 46 47 49 50 54 55 57 62 65 67 70 71 74 78
1 2 3 6 7 9 10 11 13 14 18 19 20 23 24 26 29 30 31 32 33 34 36 38 40 41 45 46 48 50 51 53 54 55 61 62 64 65 66 67 68 70 77 78 79
2 3 4 5 8 13 14 16 19 22 24 28 32 33 35 36 38 42 43 44 45 46 47 50 52 56 58 64 66 72 75 76 78
3 9 13 15 16 18 19 20 26 27 28 29 31 35 37 39 41 48 50 51 56 57 58 59 62 67 70 74 77 78
0 1 2 3 8 11 12 13 20 21 27 28 29 32 34 37 42 45 46 47 57 58 64 66 69 70 71 74 77 79
0 3 5 7 8 11 13 18 21 23 24 25 26 29 36 37 38 40 42 43 44 48 50 51 55 56 57 58 62 64 66 68 69 70 71 73 75 76
1 8 9 10 11 12 14 16 17 18 19 22 26 28 29 30 31 33 34 35 38 40 43 44 45 46 47 48 50 51 52 53 54 58 61 62 64 71 72 73 74 75 79
0 1 2 3 8 10 12 18 19 20 21 22 26 28 33 37 41 42 43 44 49 51 54 55 57 58 59 61 64 65 66 68 73 76 78
